c Output_time 26.03.2020 18:15:25_+0100 1585242925621798808
c ** Program information **
c program_name                          "QBRG_debug"
c version                               "0.3.20"
c date                                  "25.3.2020"
c gid_id                                "673970833836058123f633335630c185360d632e"
c author                                "Oliver Kullmann"
c url                                   "https://github.com/OKullmann/oklibrary/blob/master/Satisfiability/Transformers/Generators/Random/QBRG.cpp"
c ** Machine information **
c machine_name                          "chyna-Lenovo-G50-70"
c bogomips                              3791.08
c ** Compilation information **
c compiler_version                      "g++ 7.5.0"
c compilation_date                      "Mar_26_2020 11:16:30"
c compilation_options                   "--std=c++17 -pedantic -fmax-errors=5 -Wall -Wextra -g -D_GLIBCXX_DEBUG"
c NDEBUG                                0
c OPTIMIZE                              0
c ** Parameters **
c command-line                          "./QBRG_debug" "a40 e40 a40 40" "519*1,1|2-2,1|3-3,1|4-4,1" "" "1,t" ""
c output                                "QuBlRaGe_160_519_1585242925606086519.qdimacs"
c options                               "filtered,renamed"
c num_quantifier_blocks                 4
c  quantifier_blocks                    1:a1-40 2:e41-80 3:a81-120 4:e121-160
c num_clause-blocks                     1
c  clause-blocks                        519 * {1-40,1,1/2} | {41-80,1,1/2} | {81-120,1,1/2} | {121-160,1,1/2}
c num_e-seeds                           37+2=39
c  e-seeds                              1 0 1 0 5 160 2 40 0 40 1 40 0 40 1 519 4 1 1 1 1 2 2 2 1 1 2 3 3 1 1 2 4 4 1 1 2 1 1585242925606085628
p cnf 160 519
a 1 2 3 4 5 6 7 8 9 10 11 12 13 14 15 16 17 18 19 20 21 22 23 24 25 26 27 28 29 30 31 32 33 34 35 36 37 38 39 40 0
e 41 42 43 44 45 46 47 48 49 50 51 52 53 54 55 56 57 58 59 60 61 62 63 64 65 66 67 68 69 70 71 72 73 74 75 76 77 78 79 80 0
a 81 82 83 84 85 86 87 88 89 90 91 92 93 94 95 96 97 98 99 100 101 102 103 104 105 106 107 108 109 110 111 112 113 114 115 116 117 118 119 120 0
e 121 122 123 124 125 126 127 128 129 130 131 132 133 134 135 136 137 138 139 140 141 142 143 144 145 146 147 148 149 150 151 152 153 154 155 156 157 158 159 160 0
1 -42 -86 -121 0
35 75 91 -121 0
-24 42 95 -121 0
20 -60 -106 -121 0
-14 -53 -107 -121 0
14 -56 -83 121 0
26 72 102 121 0
-15 -41 103 121 0
-6 55 106 121 0
20 52 -110 121 0
6 41 112 121 0
19 -64 -114 121 0
26 -79 82 -122 0
-30 -48 -83 -122 0
19 -61 -87 -122 0
16 72 87 -122 0
-24 42 -101 -122 0
24 -51 -81 122 0
-30 -68 81 122 0
3 -43 82 122 0
-12 48 -84 122 0
-32 -41 87 122 0
19 -75 113 122 0
-1 -70 -115 122 0
31 -65 82 -123 0
-12 -77 82 -123 0
-9 60 -99 -123 0
18 -70 -101 -123 0
-13 68 -103 -123 0
-16 72 103 -123 0
-22 -56 -116 -123 0
-20 -77 81 123 0
-25 77 86 123 0
7 -69 -89 123 0
-26 -47 96 123 0
-34 -80 96 123 0
-19 47 111 123 0
18 65 112 123 0
5 69 -83 -124 0
-25 63 86 -124 0
6 -51 95 -124 0
16 -52 -102 -124 0
-1 -52 -114 -124 0
22 -74 -120 -124 0
22 53 90 124 0
20 -45 91 124 0
-18 -41 96 124 0
39 -56 -105 124 0
17 72 -114 124 0
-35 -55 -116 124 0
37 -73 84 -125 0
40 45 -96 -125 0
6 64 -101 -125 0
-4 47 -105 -125 0
-35 64 106 -125 0
-17 79 112 -125 0
-34 69 -116 -125 0
-17 72 116 -125 0
-25 68 81 125 0
8 60 -85 125 0
35 -60 -89 125 0
24 49 -111 125 0
-20 -45 -113 125 0
-33 71 -113 125 0
19 42 -115 125 0
9 44 116 125 0
12 70 -118 125 0
-14 74 82 -126 0
28 56 100 -126 0
-28 42 106 -126 0
5 -78 -108 -126 0
-40 65 -115 -126 0
33 63 -85 126 0
25 48 87 126 0
27 -44 -89 126 0
31 -60 103 126 0
40 -74 -108 126 0
-1 61 108 126 0
32 65 110 126 0
-5 -77 -82 -127 0
-16 44 -84 -127 0
5 51 87 -127 0
-13 51 -88 -127 0
16 -58 95 -127 0
27 71 -100 -127 0
-30 -56 -82 127 0
-13 -47 82 127 0
24 48 -84 127 0
-8 48 -98 127 0
13 -68 -106 127 0
-13 -63 112 127 0
31 -42 84 -128 0
-14 59 -86 -128 0
29 55 -96 -128 0
28 61 -100 -128 0
28 -43 104 -128 0
-24 59 -106 -128 0
18 79 107 -128 0
-13 -45 110 -128 0
-6 -65 116 -128 0
-31 55 81 128 0
32 -57 90 128 0
-40 46 -91 128 0
28 -64 -91 128 0
10 51 103 128 0
-21 55 105 128 0
-36 -60 113 128 0
-15 75 -117 128 0
-1 -73 81 -129 0
8 -73 82 -129 0
-26 60 93 -129 0
39 -78 94 -129 0
10 54 -99 -129 0
17 -42 -106 -129 0
-1 43 -113 -129 0
-25 56 -94 129 0
-38 73 96 129 0
1 80 -98 129 0
4 80 102 129 0
38 -44 -109 129 0
-13 -51 110 129 0
-22 72 -92 -130 0
-10 -54 94 -130 0
8 -57 -101 -130 0
-10 -68 -103 -130 0
16 -58 108 -130 0
9 59 119 -130 0
-33 61 119 -130 0
-30 -60 -81 130 0
37 -68 -88 130 0
3 -70 -88 130 0
24 54 -96 130 0
-22 60 -102 130 0
35 -78 -108 130 0
8 55 110 130 0
25 49 -114 130 0
-24 52 114 130 0
39 41 -81 -131 0
10 -51 -87 -131 0
-17 44 -89 -131 0
3 55 -102 -131 0
-22 62 -106 -131 0
6 -79 -109 -131 0
22 74 110 -131 0
-5 -60 -114 -131 0
23 79 114 -131 0
13 68 -97 131 0
4 61 -101 131 0
-1 -61 103 131 0
17 62 -105 131 0
-15 74 -117 131 0
-29 -73 -81 -132 0
-38 74 -89 -132 0
-24 -44 100 -132 0
4 70 -111 -132 0
-26 -45 94 132 0
-19 -46 102 132 0
26 -61 -110 132 0
-4 -57 111 132 0
-36 -55 -119 132 0
-30 -80 -83 -133 0
7 -64 -89 -133 0
25 -48 -94 -133 0
26 68 97 -133 0
40 74 -98 -133 0
31 43 -112 -133 0
27 -73 114 -133 0
40 -73 -119 -133 0
-22 -46 -81 133 0
-20 -71 -85 133 0
27 -78 97 133 0
24 66 98 133 0
3 -58 -108 133 0
-21 -43 109 133 0
8 52 112 133 0
16 43 113 133 0
21 63 -114 133 0
28 74 -114 133 0
-34 53 116 133 0
36 61 81 -134 0
32 68 98 -134 0
31 -63 -99 -134 0
32 46 -105 -134 0
-21 44 107 -134 0
39 57 107 -134 0
-31 -68 -86 134 0
-17 -75 92 134 0
-36 59 94 134 0
-36 49 95 134 0
-31 50 102 134 0
-37 -57 111 134 0
25 71 -117 134 0
19 -60 91 -135 0
-27 66 -97 -135 0
-36 75 -97 -135 0
-17 46 -106 -135 0
6 -80 -109 -135 0
-36 46 -116 -135 0
2 59 -81 135 0
-10 64 99 135 0
40 45 -104 135 0
37 -73 -109 135 0
26 58 -116 135 0
29 60 -81 -136 0
4 -46 -82 -136 0
-39 -72 -90 -136 0
-33 56 94 -136 0
-21 -76 -103 -136 0
25 55 106 -136 0
-22 -49 -114 -136 0
34 -79 81 136 0
37 42 97 136 0
-3 68 98 136 0
-14 -51 112 136 0
6 78 -82 -137 0
-36 73 84 -137 0
8 59 86 -137 0
-34 47 91 -137 0
12 -54 -95 -137 0
-24 -70 -100 -137 0
12 49 106 -137 0
-28 45 -109 -137 0
-31 57 -114 -137 0
-27 -56 -115 -137 0
-14 80 -86 137 0
-37 -47 -88 137 0
-21 62 92 137 0
33 46 -98 137 0
39 67 -98 137 0
-12 -71 -99 137 0
-39 70 -104 137 0
-39 -77 107 137 0
-34 50 108 137 0
-7 64 -113 137 0
-22 56 114 137 0
-18 -48 -119 137 0
9 -59 -119 137 0
-36 54 87 -138 0
-40 48 -104 -138 0
-16 74 110 -138 0
18 -51 -87 138 0
-11 -54 -94 138 0
-11 67 109 138 0
-39 -48 -81 -139 0
-36 -58 -86 -139 0
1 -55 -93 -139 0
31 -58 106 -139 0
-28 78 -109 -139 0
-21 -72 109 -139 0
-6 -46 -115 -139 0
-4 77 85 139 0
26 -63 -108 139 0
-20 -71 81 -140 0
-6 71 84 -140 0
-5 68 85 -140 0
23 70 87 -140 0
10 72 -105 -140 0
39 66 -110 -140 0
33 -80 -113 -140 0
-7 -77 -117 -140 0
3 -47 119 -140 0
24 60 90 140 0
25 78 -101 140 0
-28 -44 -104 140 0
15 43 107 140 0
1 -67 -116 140 0
13 50 120 140 0
-1 42 -95 -141 0
13 -42 105 -141 0
-25 -55 106 -141 0
-22 -60 -108 -141 0
14 -73 116 -141 0
-34 80 -117 -141 0
18 -55 -83 141 0
23 79 86 141 0
-27 -66 103 141 0
35 71 111 141 0
33 -69 -115 141 0
20 -74 116 141 0
2 -46 90 -142 0
-34 77 -91 -142 0
39 -56 -94 -142 0
-31 -44 101 -142 0
-9 -46 -108 -142 0
-28 66 116 -142 0
-29 -59 84 142 0
-21 -47 94 142 0
32 54 111 142 0
-3 54 -112 142 0
-16 -74 116 142 0
-4 -71 88 -143 0
-35 -56 -99 -143 0
16 46 -114 -143 0
28 48 116 -143 0
-17 -46 83 143 0
-22 -42 -89 143 0
-7 -46 -92 143 0
21 54 -94 143 0
6 -61 -95 143 0
20 -71 -104 143 0
21 -57 -105 143 0
-11 75 -107 143 0
26 74 -113 143 0
-21 -54 118 143 0
3 49 84 -144 0
33 -78 84 -144 0
23 52 -90 -144 0
-11 72 -109 -144 0
-9 45 -112 -144 0
26 -59 115 -144 0
-10 -62 118 -144 0
-18 66 93 144 0
34 -43 -94 144 0
11 53 -106 144 0
-14 77 -110 144 0
-38 65 81 -145 0
-13 -57 83 -145 0
23 41 86 -145 0
-16 -76 95 -145 0
34 -65 -98 -145 0
-8 56 -102 -145 0
5 -72 108 -145 0
-1 -62 115 -145 0
29 45 -118 -145 0
-36 60 -120 -145 0
-4 -76 -120 -145 0
-21 62 -94 145 0
-10 -65 94 145 0
4 46 -95 145 0
-21 -79 -97 145 0
26 59 -103 145 0
-30 -41 104 145 0
-23 57 106 145 0
10 62 106 145 0
36 50 -107 145 0
-17 50 107 145 0
-32 47 111 145 0
14 -59 -117 145 0
-38 -57 -83 -146 0
10 53 -91 -146 0
2 61 91 -146 0
24 -65 109 -146 0
-12 73 -113 -146 0
-14 -53 -111 146 0
28 -41 113 146 0
-5 -44 -118 146 0
-21 44 118 146 0
1 62 -120 146 0
-35 -49 -81 -147 0
3 -78 101 -147 0
-13 -67 -106 -147 0
28 -61 111 -147 0
10 -68 -112 -147 0
-25 -47 112 -147 0
27 61 -101 147 0
-7 -53 119 147 0
-27 -62 93 -148 0
34 -46 -99 -148 0
8 -65 119 -148 0
10 -71 -87 148 0
-33 60 96 148 0
-19 -67 107 148 0
34 50 -119 148 0
-10 -63 -120 148 0
-39 45 -89 -149 0
-26 -60 99 -149 0
10 60 -101 -149 0
17 -50 103 -149 0
-37 59 -104 -149 0
-22 41 105 -149 0
2 67 -111 -149 0
40 60 -115 -149 0
29 -72 -120 -149 0
-12 43 81 149 0
-26 59 82 149 0
14 63 -83 149 0
22 77 85 149 0
-31 -69 95 149 0
34 -76 109 149 0
-12 -76 118 149 0
10 -51 -120 149 0
-14 69 81 -150 0
-31 65 90 -150 0
12 -69 97 -150 0
-11 75 100 -150 0
-11 -70 -89 150 0
29 44 -92 150 0
15 41 -93 150 0
-2 48 -99 150 0
31 75 99 150 0
-40 65 -115 150 0
-30 -73 81 -151 0
1 45 -90 -151 0
25 72 90 -151 0
17 55 98 -151 0
-33 55 -102 -151 0
-32 45 -103 -151 0
32 76 -105 -151 0
-18 -66 83 151 0
-34 -80 -86 151 0
-10 80 88 151 0
40 73 -93 151 0
-6 58 102 151 0
-17 66 108 151 0
-21 -53 118 151 0
-25 61 -81 -152 0
30 56 -87 -152 0
-19 -66 117 -152 0
17 64 -81 152 0
-20 -75 -84 152 0
5 -59 93 152 0
2 56 99 152 0
9 42 -115 152 0
-34 63 117 152 0
39 -73 -119 152 0
19 -76 85 -153 0
7 -41 -92 -153 0
10 -66 -103 -153 0
-30 71 -107 -153 0
-14 -66 107 -153 0
37 68 -114 -153 0
-15 50 -88 153 0
-17 77 -88 153 0
4 72 98 153 0
18 71 102 153 0
-13 43 -109 153 0
38 78 -109 153 0
9 58 -116 153 0
-13 -71 82 -154 0
16 -67 -87 -154 0
24 57 91 -154 0
-37 -58 97 -154 0
-6 -68 -98 -154 0
-37 67 101 -154 0
-23 -66 -113 -154 0
27 -59 -114 -154 0
-19 -64 114 -154 0
-15 51 81 154 0
13 -66 -83 154 0
14 -48 -88 154 0
-22 47 -102 154 0
-29 -74 -109 154 0
36 -77 83 -155 0
1 -52 -87 -155 0
-37 -75 91 -155 0
-1 54 99 -155 0
19 -77 102 -155 0
-35 -45 -106 -155 0
-21 48 113 -155 0
9 -73 113 -155 0
1 -77 -118 -155 0
-12 69 83 155 0
-35 44 -86 155 0
12 63 95 155 0
-31 67 -99 155 0
-16 67 -104 155 0
22 55 86 -156 0
-12 -57 86 -156 0
-20 -51 -87 -156 0
-23 41 -89 -156 0
19 -78 -97 -156 0
-16 45 -104 -156 0
-19 56 115 -156 0
-33 -52 84 156 0
30 -71 -87 156 0
-23 50 -99 156 0
-16 67 100 156 0
10 72 106 156 0
3 -63 -83 -157 0
-33 -75 -98 -157 0
35 76 99 -157 0
-30 -76 103 -157 0
-20 53 -108 -157 0
-35 -54 111 -157 0
-11 75 -116 -157 0
35 61 84 157 0
-6 -67 85 157 0
32 -80 85 157 0
36 -68 87 157 0
-38 -49 -100 157 0
-32 64 82 -158 0
35 -68 -83 -158 0
2 61 94 -158 0
-21 -44 103 -158 0
3 -69 105 -158 0
28 -45 107 -158 0
11 63 111 -158 0
7 73 114 -158 0
11 71 -84 158 0
35 -62 -96 158 0
39 54 96 158 0
3 61 -104 158 0
-22 46 117 158 0
24 55 87 -159 0
1 55 -88 -159 0
-35 60 101 -159 0
-3 -68 81 159 0
-12 49 82 159 0
-35 65 82 159 0
-30 48 -83 159 0
-22 56 -92 159 0
30 42 98 159 0
-12 -65 -114 159 0
-24 -62 -93 -160 0
-38 51 -94 -160 0
-7 -76 -95 -160 0
11 70 107 -160 0
-15 -73 -109 -160 0
3 42 117 -160 0
-6 41 120 -160 0
-18 65 89 160 0
-28 -67 89 160 0
-11 -60 -91 160 0
40 53 -93 160 0
18 -62 94 160 0
-14 -72 -104 160 0
-12 -44 108 160 0
-6 -48 108 160 0
-23 43 -109 160 0
